(set-option :auto_config false)
(set-option :smt.mbqi false)
(set-option :smt.case_split 3)
(set-option :smt.qi.eager_threshold 100.0)
(set-option :smt.delay_units true)
(set-option :smt.arith.solver 2)
(set-option :smt.arith.nl false)
(set-info :comment ";; Prelude")
(set-info :comment ";; AIR prelude")
(declare-sort %%Function%% 0)
(declare-sort FuelId 0)
(declare-sort Fuel 0)
(declare-const zero Fuel)
(declare-fun succ (Fuel) Fuel)
(declare-fun fuel_bool (FuelId) Bool)
(declare-fun fuel_bool_default (FuelId) Bool)
(declare-const fuel_defaults Bool)
(assert (=> fuel_defaults (forall ((id FuelId)) (! (= (fuel_bool id) (fuel_bool_default id)) :pattern ((fuel_bool id)) :qid prelude_fuel_defaults :skolemid skolem_prelude_fuel_defaults))))
(declare-sort Char 0)
(declare-fun char%from_unicode (Int) Char)
(declare-fun char%to_unicode (Char) Int)
(declare-sort StrSlice 0)
(declare-fun str%strslice_is_ascii (StrSlice) Bool)
(declare-fun str%strslice_len (StrSlice) Int)
(declare-fun str%strslice_get_char (StrSlice Int) Char)
(declare-fun str%new_strlit (Int) StrSlice)
(declare-fun str%from_strlit (StrSlice) Int)
(declare-sort Poly 0)
(declare-sort Height 0)
(declare-fun I (Int) Poly)
(declare-fun B (Bool) Poly)
(declare-fun %I (Poly) Int)
(declare-fun %B (Poly) Bool)
(declare-fun S (StrSlice) Poly)
(declare-fun %S (Poly) StrSlice)
(declare-fun C (Char) Poly)
(declare-fun %C (Poly) Char)
(declare-sort Type 0)
(declare-const BOOL Type)
(declare-const INT Type)
(declare-const NAT Type)
(declare-const STRSLICE Type)
(declare-const CHAR Type)
(declare-fun UINT (Int) Type)
(declare-fun SINT (Int) Type)
(declare-fun CONST_INT (Int) Type)
(declare-sort Dcr 0)
(declare-const $ Dcr)
(declare-fun REF (Dcr) Dcr)
(declare-fun MUT_REF (Dcr) Dcr)
(declare-fun BOX (Dcr) Dcr)
(declare-fun RC (Dcr) Dcr)
(declare-fun ARC (Dcr) Dcr)
(declare-fun GHOST (Dcr) Dcr)
(declare-fun TRACKED (Dcr) Dcr)
(declare-fun NEVER (Dcr) Dcr)
(declare-fun ARRAY (Dcr Type Dcr Type) Type)
(declare-fun SLICE (Dcr Type) Type)
(declare-fun has_type (Poly Type) Bool)
(declare-fun as_type (Poly Type) Poly)
(declare-fun mk_fun (%%Function%%) %%Function%%)
(declare-fun const_int (Type) Int)
(assert (forall ((i Int)) (! (= i (const_int (CONST_INT i))) :pattern ((CONST_INT i)) :qid prelude_type_id_const_int :skolemid skolem_prelude_type_id_const_int)))
(assert (forall ((b Bool)) (! (has_type (B b) BOOL) :pattern ((has_type (B b) BOOL)) :qid prelude_has_type_bool :skolemid skolem_prelude_has_type_bool)))
(assert (forall ((x Poly) (t Type)) (! (and (has_type (as_type x t) t) (=> (has_type x t) (= x (as_type x t)))) :pattern ((as_type x t)) :qid prelude_as_type :skolemid skolem_prelude_as_type)))
(assert (forall ((x %%Function%%)) (! (= (mk_fun x) x) :pattern ((mk_fun x)) :qid prelude_mk_fun :skolemid skolem_prelude_mk_fun)))
(assert (forall ((x Bool)) (! (= x (%B (B x))) :pattern ((B x)) :qid prelude_unbox_box_bool :skolemid skolem_prelude_unbox_box_bool)))
(assert (forall ((x Int)) (! (= x (%I (I x))) :pattern ((I x)) :qid prelude_unbox_box_int :skolemid skolem_prelude_unbox_box_int)))
(assert (forall ((x Poly)) (! (=> (has_type x BOOL) (= x (B (%B x)))) :pattern ((has_type x BOOL)) :qid prelude_box_unbox_bool :skolemid skolem_prelude_box_unbox_bool)))
(assert (forall ((x Poly)) (! (=> (has_type x INT) (= x (I (%I x)))) :pattern ((has_type x INT)) :qid prelude_box_unbox_int :skolemid skolem_prelude_box_unbox_int)))
(assert (forall ((x Poly)) (! (=> (has_type x NAT) (= x (I (%I x)))) :pattern ((has_type x NAT)) :qid prelude_box_unbox_nat :skolemid skolem_prelude_box_unbox_nat)))
(assert (forall ((bits Int) (x Poly)) (! (=> (has_type x (UINT bits)) (= x (I (%I x)))) :pattern ((has_type x (UINT bits))) :qid prelude_box_unbox_uint :skolemid skolem_prelude_box_unbox_uint)))
(assert (forall ((bits Int) (x Poly)) (! (=> (has_type x (SINT bits)) (= x (I (%I x)))) :pattern ((has_type x (SINT bits))) :qid prelude_box_unbox_sint :skolemid skolem_prelude_box_unbox_sint)))
(assert (forall ((x Int)) (! (= (str%from_strlit (str%new_strlit x)) x) :pattern ((str%new_strlit x)) :qid prelude_strlit_injective :skolemid skolem_prelude_strlit_injective)))
(assert (forall ((x Poly)) (! (=> (has_type x STRSLICE) (= x (S (%S x)))) :pattern ((has_type x STRSLICE)) :qid prelude_box_unbox_strslice :skolemid skolem_prelude_box_unbox_strslice)))
(assert (forall ((x StrSlice)) (! (= x (%S (S x))) :pattern ((S x)) :qid prelude_unbox_box_strslice :skolemid skolem_prelude_unbox_box_strslice)))
(assert (forall ((x StrSlice)) (! (has_type (S x) STRSLICE) :pattern ((has_type (S x) STRSLICE)) :qid prelude_has_type_strslice :skolemid skolem_prelude_has_type_strslice)))
(declare-fun ext_eq (Bool Type Poly Poly) Bool)
(assert (forall ((deep Bool) (t Type) (x Poly) (y Poly)) (! (= (= x y) (ext_eq deep t x y)) :pattern ((ext_eq deep t x y)) :qid prelude_ext_eq :skolemid skolem_prelude_ext_eq)))
(declare-const SZ Int)
(assert (or (= SZ 32) (= SZ 64)))
(declare-fun uHi (Int) Int)
(declare-fun iLo (Int) Int)
(declare-fun iHi (Int) Int)
(assert (= (uHi 8) 256))
(assert (= (uHi 16) 65536))
(assert (= (uHi 32) 4294967296))
(assert (= (uHi 64) 18446744073709551616))
(assert (= (uHi 128) (+ 1 340282366920938463463374607431768211455)))
(assert (= (iLo 8) (- 128)))
(assert (= (iLo 16) (- 32768)))
(assert (= (iLo 32) (- 2147483648)))
(assert (= (iLo 64) (- 9223372036854775808)))
(assert (= (iLo 128) (- 170141183460469231731687303715884105728)))
(assert (= (iHi 8) 128))
(assert (= (iHi 16) 32768))
(assert (= (iHi 32) 2147483648))
(assert (= (iHi 64) 9223372036854775808))
(assert (= (iHi 128) 170141183460469231731687303715884105728))
(declare-fun nClip (Int) Int)
(declare-fun uClip (Int Int) Int)
(declare-fun iClip (Int Int) Int)
(assert (forall ((i Int)) (! (and (<= 0 (nClip i)) (=> (<= 0 i) (= i (nClip i)))) :pattern ((nClip i)) :qid prelude_nat_clip :skolemid skolem_prelude_nat_clip)))
(assert (forall ((bits Int) (i Int)) (! (and (<= 0 (uClip bits i)) (< (uClip bits i) (uHi bits)) (=> (and (<= 0 i) (< i (uHi bits))) (= i (uClip bits i)))) :pattern ((uClip bits i)) :qid prelude_u_clip :skolemid skolem_prelude_u_clip)))
(assert (forall ((bits Int) (i Int)) (! (and (<= (iLo bits) (iClip bits i)) (< (iClip bits i) (iHi bits)) (=> (and (<= (iLo bits) i) (< i (iHi bits))) (= i (iClip bits i)))) :pattern ((iClip bits i)) :qid prelude_i_clip :skolemid skolem_prelude_i_clip)))
(declare-fun uInv (Int Int) Bool)
(declare-fun iInv (Int Int) Bool)
(assert (forall ((bits Int) (i Int)) (! (= (uInv bits i) (and (<= 0 i) (< i (uHi bits)))) :pattern ((uInv bits i)) :qid prelude_u_inv :skolemid skolem_prelude_u_inv)))
(assert (forall ((bits Int) (i Int)) (! (= (iInv bits i) (and (<= (iLo bits) i) (< i (iHi bits)))) :pattern ((iInv bits i)) :qid prelude_i_inv :skolemid skolem_prelude_i_inv)))
(assert (forall ((x Int)) (! (has_type (I x) INT) :pattern ((has_type (I x) INT)) :qid prelude_has_type_int :skolemid skolem_prelude_has_type_int)))
(assert (forall ((x Int)) (! (=> (<= 0 x) (has_type (I x) NAT)) :pattern ((has_type (I x) NAT)) :qid prelude_has_type_nat :skolemid skolem_prelude_has_type_nat)))
(assert (forall ((bits Int) (x Int)) (! (=> (uInv bits x) (has_type (I x) (UINT bits))) :pattern ((has_type (I x) (UINT bits))) :qid prelude_has_type_uint :skolemid skolem_prelude_has_type_uint)))
(assert (forall ((bits Int) (x Int)) (! (=> (iInv bits x) (has_type (I x) (SINT bits))) :pattern ((has_type (I x) (SINT bits))) :qid prelude_has_type_sint :skolemid skolem_prelude_has_type_sint)))
(assert (forall ((x Poly)) (! (=> (has_type x NAT) (<= 0 (%I x))) :pattern ((has_type x NAT)) :qid prelude_unbox_int :skolemid skolem_prelude_unbox_int)))
(assert (forall ((bits Int) (x Poly)) (! (=> (has_type x (UINT bits)) (uInv bits (%I x))) :pattern ((has_type x (UINT bits))) :qid prelude_unbox_uint :skolemid skolem_prelude_unbox_uint)))
(assert (forall ((bits Int) (x Poly)) (! (=> (has_type x (SINT bits)) (iInv bits (%I x))) :pattern ((has_type x (SINT bits))) :qid prelude_unbox_sint :skolemid skolem_prelude_unbox_sint)))
(declare-fun Add (Int Int) Int)
(declare-fun Sub (Int Int) Int)
(declare-fun Mul (Int Int) Int)
(declare-fun EucDiv (Int Int) Int)
(declare-fun EucMod (Int Int) Int)
(assert (forall ((x Int) (y Int)) (! (= (Add x y) (+ x y)) :pattern ((Add x y)) :qid prelude_add :skolemid skolem_prelude_add)))
(assert (forall ((x Int) (y Int)) (! (= (Sub x y) (- x y)) :pattern ((Sub x y)) :qid prelude_sub :skolemid skolem_prelude_sub)))
(assert (forall ((x Int) (y Int)) (! (= (Mul x y) (* x y)) :pattern ((Mul x y)) :qid prelude_mul :skolemid skolem_prelude_mul)))
(assert (forall ((x Int) (y Int)) (! (= (EucDiv x y) (div x y)) :pattern ((EucDiv x y)) :qid prelude_eucdiv :skolemid skolem_prelude_eucdiv)))
(assert (forall ((x Int) (y Int)) (! (= (EucMod x y) (mod x y)) :pattern ((EucMod x y)) :qid prelude_eucmod :skolemid skolem_prelude_eucmod)))
(assert (forall ((x Int) (y Int)) (! (=> (and (<= 0 x) (<= 0 y)) (<= 0 (Mul x y))) :pattern ((Mul x y)) :qid prelude_mul_nats :skolemid skolem_prelude_mul_nats)))
(assert (forall ((x Int) (y Int)) (! (=> (and (<= 0 x) (< 0 y)) (and (<= 0 (EucDiv x y)) (<= (EucDiv x y) x))) :pattern ((EucDiv x y)) :qid prelude_div_unsigned_in_bounds :skolemid skolem_prelude_div_unsigned_in_bounds)))
(assert (forall ((x Int) (y Int)) (! (=> (and (<= 0 x) (< 0 y)) (and (<= 0 (EucMod x y)) (< (EucMod x y) y))) :pattern ((EucMod x y)) :qid prelude_mod_unsigned_in_bounds :skolemid skolem_prelude_mod_unsigned_in_bounds)))
(assert (forall ((x Poly)) (! (=> (has_type x CHAR) (= x (C (%C x)))) :pattern ((has_type x CHAR)) :qid prelude_box_unbox_char :skolemid skolem_prelude_box_unbox_char)))
(assert (forall ((x Char)) (! (= x (%C (C x))) :pattern ((C x)) :qid prelude_unbox_box_char :skolemid skolem_prelude_unbox_box_char)))
(assert (forall ((x Char)) (! (has_type (C x) CHAR) :pattern ((has_type (C x) CHAR)) :qid prelude_has_type_char :skolemid skolem_prelude_has_type_char)))
(assert (forall ((x Int)) (! (=> (and (<= 0 x) (< x (uHi 32))) (= x (char%to_unicode (char%from_unicode x)))) :pattern ((char%from_unicode x)) :qid prelude_char_injective :skolemid skolem_prelude_char_injective)))
(assert (forall ((c Char)) (! (and (<= 0 (char%to_unicode c)) (< (char%to_unicode c) (uHi 32))) :pattern ((char%to_unicode c)) :qid prelude_to_unicode_bounds :skolemid skolem_prelude_to_unicode_bounds)))
(declare-fun height (Poly) Height)
(declare-fun height_lt (Height Height) Bool)
(assert (forall ((x Height) (y Height)) (! (= (height_lt x y) (and ((_ partial-order 0) x y) (not (= x y)))) :pattern ((height_lt x y)) :qid prelude_height_lt :skolemid skolem_prelude_height_lt)))
(declare-fun fun_from_recursive_field (Poly) Poly)
(declare-fun check_decrease_int (Int Int Bool) Bool)
(assert (forall ((cur Int) (prev Int) (otherwise Bool)) (! (= (check_decrease_int cur prev otherwise) (or (and (<= 0 cur) (< cur prev)) (and (= cur prev) otherwise))) :pattern ((check_decrease_int cur prev otherwise)) :qid prelude_check_decrease_int :skolemid skolem_prelude_check_decrease_int)))
(declare-fun check_decrease_height (Poly Poly Bool) Bool)
(assert (forall ((cur Poly) (prev Poly) (otherwise Bool)) (! (= (check_decrease_height cur prev otherwise) (or (height_lt (height cur) (height prev)) (and (= (height cur) (height prev)) otherwise))) :pattern ((check_decrease_height cur prev otherwise)) :qid prelude_check_decrease_height :skolemid skolem_prelude_check_decrease_height)))
(declare-fun uintxor (Int Poly Poly) Int)
(declare-fun uintand (Int Poly Poly) Int)
(declare-fun uintor (Int Poly Poly) Int)
(declare-fun uintshr (Int Poly Poly) Int)
(declare-fun uintshl (Int Poly Poly) Int)
(declare-fun uintnot (Int Poly) Int)
(declare-fun singular_mod (Int Int) Int)
(assert (forall ((x Int) (y Int)) (! (=> (not (= y 0)) (= (EucMod x y) (singular_mod x y))) :pattern ((singular_mod x y)) :qid prelude_singularmod :skolemid skolem_prelude_singularmod)))
(declare-fun closure_req (Type Dcr Type Poly Poly) Bool)
(declare-fun closure_ens (Type Dcr Type Poly Poly Poly) Bool)
(set-info :comment ";; MODULE 'root module'")
(set-info :comment ";; Fuel")
(assert true)
(set-info :comment ";; Datatypes")
(declare-datatypes ((tuple%0. 0)) (((tuple%0./tuple%0 ))))
(declare-const TYPE%tuple%0. Type)
(declare-fun Poly%tuple%0. (tuple%0.) Poly)
(declare-fun %Poly%tuple%0. (Poly) tuple%0.)
(assert (forall ((x@ tuple%0.)) (! (= x@ (%Poly%tuple%0. (Poly%tuple%0. x@))) :pattern ((Poly%tuple%0. x@)) :qid internal_crate__tuple__0_box_axiom_definition :skolemid skolem_internal_crate__tuple__0_box_axiom_definition)))
(assert (forall ((x@ Poly)) (! (=> (has_type x@ TYPE%tuple%0.) (= x@ (Poly%tuple%0. (%Poly%tuple%0. x@)))) :pattern ((has_type x@ TYPE%tuple%0.)) :qid internal_crate__tuple__0_unbox_axiom_definition :skolemid skolem_internal_crate__tuple__0_unbox_axiom_definition)))
(assert (forall ((x@ tuple%0.)) (! (has_type (Poly%tuple%0. x@) TYPE%tuple%0.) :pattern ((has_type (Poly%tuple%0. x@) TYPE%tuple%0.)) :qid internal_crate__tuple__0_has_type_always_definition :skolemid skolem_internal_crate__tuple__0_has_type_always_definition)))
(set-info :comment ";; Function-Specs main::nl_basics::lemma_mul_is_associative")
(declare-fun ens%main!nl_basics.lemma_mul_is_associative. (Int Int Int) Bool)
(assert (forall ((x~2@ Int) (y~4@ Int) (z~6@ Int)) (! (= (ens%main!nl_basics.lemma_mul_is_associative. x~2@ y~4@ z~6@) (= (Mul x~2@ (Mul y~4@ z~6@)) (Mul (Mul x~2@ y~4@) z~6@))) :pattern ((ens%main!nl_basics.lemma_mul_is_associative. x~2@ y~4@ z~6@)) :qid internal_ens__main!nl_basics.lemma_mul_is_associative._definition :skolemid skolem_internal_ens__main!nl_basics.lemma_mul_is_associative._definition)))
(set-info :comment ";; Function-Specs main::nl_basics::lemma_mul_is_commutative")
(declare-fun ens%main!nl_basics.lemma_mul_is_commutative. (Int Int) Bool)
(assert (forall ((x~2@ Int) (y~4@ Int)) (! (= (ens%main!nl_basics.lemma_mul_is_commutative. x~2@ y~4@) (= (Mul x~2@ y~4@) (Mul y~4@ x~2@))) :pattern ((ens%main!nl_basics.lemma_mul_is_commutative. x~2@ y~4@)) :qid internal_ens__main!nl_basics.lemma_mul_is_commutative._definition :skolemid skolem_internal_ens__main!nl_basics.lemma_mul_is_commutative._definition)))
(set-info :comment ";; Function-Specs main::nl_basics::lemma_mul_is_distributive")
(declare-fun ens%main!nl_basics.lemma_mul_is_distributive. (Int Int Int) Bool)
(assert (forall ((x~2@ Int) (y~4@ Int) (z~6@ Int)) (! (= (ens%main!nl_basics.lemma_mul_is_distributive. x~2@ y~4@ z~6@) (and (= (Mul x~2@ (Add y~4@ z~6@)) (Add (Mul x~2@ y~4@) (Mul x~2@ z~6@))) (= (Mul (Add x~2@ y~4@) z~6@) (Add (Mul x~2@ z~6@) (Mul y~4@ z~6@))) (= (Mul x~2@ (Sub y~4@ z~6@)) (Sub (Mul x~2@ y~4@) (Mul x~2@ z~6@))) (= (Mul (Sub x~2@ y~4@) z~6@) (Sub (Mul x~2@ z~6@) (Mul y~4@ z~6@))))) :pattern ((ens%main!nl_basics.lemma_mul_is_distributive. x~2@ y~4@ z~6@)) :qid internal_ens__main!nl_basics.lemma_mul_is_distributive._definition :skolemid skolem_internal_ens__main!nl_basics.lemma_mul_is_distributive._definition)))
(set-info :comment ";; Function-Def main::inst_0")
(set-info :comment ";; mariposa_data/6//18219133925846158304/nlqi_verus/src/main.rs:7:1: 16:36 (#0)")
(push 1)
(declare-const a0~2@ Int)
(declare-const b0~4@ Int)
(declare-const c0~6@ Int)
(declare-const d0~8@ Int)
(declare-const a1~10@ Int)
(declare-const b1~12@ Int)
(declare-const c1~14@ Int)
(declare-const d1~16@ Int)
(declare-const a2~18@ Int)
(declare-const b2~20@ Int)
(declare-const c2~22@ Int)
(declare-const d2~24@ Int)
(declare-const a3~26@ Int)
(declare-const b3~28@ Int)
(declare-const c3~30@ Int)
(declare-const d3~32@ Int)
(declare-const a4~34@ Int)
(declare-const b4~36@ Int)
(declare-const c4~38@ Int)
(declare-const d4~40@ Int)
(declare-const a5~42@ Int)
(declare-const b5~44@ Int)
(declare-const c5~46@ Int)
(declare-const d5~48@ Int)
(declare-const a6~50@ Int)
(declare-const b6~52@ Int)
(declare-const c6~54@ Int)
(declare-const d6~56@ Int)
(declare-const a7~58@ Int)
(declare-const b7~60@ Int)
(declare-const c7~62@ Int)
(declare-const d7~64@ Int)
(declare-const a8~66@ Int)
(declare-const b8~68@ Int)
(declare-const c8~70@ Int)
(declare-const d8~72@ Int)
(declare-const a9~74@ Int)
(declare-const b9~76@ Int)
(declare-const c9~78@ Int)
(declare-const d9~80@ Int)
(declare-const tmp%1@ Int)
(declare-const tmp%2@ Int)
(declare-const tmp%3@ Int)
(declare-const tmp%4@ Int)
(declare-const tmp%5@ Int)
(declare-const tmp%6@ Int)
(declare-const tmp%7@ Int)
(declare-const tmp%8@ Int)
(declare-const tmp%9@ Int)
(declare-const tmp%10@ Int)
(declare-const tmp%11@ Int)
(declare-const temp_0_0~301@ Int)
(declare-const temp_0_1~522@ Int)
(declare-const temp_1_0~819@ Int)
(declare-const temp_1_1~1080@ Int)
(declare-const temp_2_0~1419@ Int)
(declare-const temp_2_1~1668@ Int)
(declare-const temp_3_0~2029@ Int)
(declare-const temp_3_1~2238@ Int)
(declare-const temp_4_0~2523@ Int)
(declare-const temp_4_1~2776@ Int)
(declare-const temp_5_0~2969@ Int)
(declare-const temp_5_1~3134@ Int)
(declare-const temp_6_0~3351@ Int)
(declare-const temp_6_1~3644@ Int)
(assert fuel_defaults)
(set-info :comment ";; assertion failed")
(declare-const %%location_label%%0 Bool)
(set-info :comment ";; assertion failed")
(declare-const %%location_label%%1 Bool)
(set-info :comment ";; assertion failed")
(declare-const %%location_label%%2 Bool)
(set-info :comment ";; assertion failed")
(declare-const %%location_label%%3 Bool)
(set-info :comment ";; assertion failed")
(declare-const %%location_label%%4 Bool)
(set-info :comment ";; assertion failed")
(declare-const %%location_label%%5 Bool)
(set-info :comment ";; assertion failed")
(declare-const %%location_label%%6 Bool)
(declare-const %%query%% Bool)
(assert (=> %%query%% (not (=> (= temp_0_0~301@ (Mul (Mul (Mul (Mul (Sub (Mul a0~2@ d0~8@) (Mul a0~2@ d0~8@)) (Add (Sub c0~6@ d0~8@) (Mul a0~2@ b0~4@))) (Mul (Mul (Sub a0~2@ d0~8@) (Mul a0~2@ b0~4@)) (Mul (Mul d0~8@ b0~4@) (Mul c0~6@ b0~4@)))) (Mul (Mul (Mul (Mul d0~8@ a0~2@) (Mul d0~8@ c0~6@)) (Sub (Mul d0~8@ a0~2@) (Mul d0~8@ b0~4@))) (Mul (Mul (Mul a0~2@ c0~6@) d0~8@) b0~4@))) (Mul (Mul (Mul (Mul d0~8@ b0~4@) (Mul (Mul b0~4@ b0~4@) (Add c0~6@ b0~4@))) (Sub (Mul (Mul b0~4@ b0~4@) (Mul a0~2@ b0~4@)) (Add (Mul b0~4@ a0~2@) (Mul a0~2@ b0~4@)))) (Mul (Mul (Mul c0~6@ c0~6@) (Mul (Sub b0~4@ d0~8@) c0~6@)) (Mul (Mul (Mul d0~8@ b0~4@) (Sub a0~2@ a0~2@)) (Mul (Sub b0~4@ d0~8@) (Add a0~2@ b0~4@))))))) (=> (= temp_0_1~522@ (Mul (Mul (Mul (Mul (Sub (Mul a0~2@ d0~8@) (Mul a0~2@ d0~8@)) (Add (Sub c0~6@ d0~8@) (Mul a0~2@ b0~4@))) (Mul (Mul (Sub a0~2@ d0~8@) (Mul a0~2@ b0~4@)) (Mul (Mul c0~6@ b0~4@) (Mul d0~8@ b0~4@)))) (Mul (Mul (Mul (Mul d0~8@ a0~2@) (Mul d0~8@ c0~6@)) (Sub (Mul d0~8@ a0~2@) (Mul d0~8@ b0~4@))) (Mul (Mul (Mul a0~2@ c0~6@) d0~8@) b0~4@))) (Mul (Mul (Mul (Mul d0~8@ b0~4@) (Mul (Mul b0~4@ b0~4@) (Add c0~6@ b0~4@))) (Sub (Mul (Mul b0~4@ b0~4@) (Mul a0~2@ b0~4@)) (Add (Mul b0~4@ a0~2@) (Mul a0~2@ b0~4@)))) (Mul (Mul (Mul c0~6@ c0~6@) (Mul (Sub b0~4@ d0~8@) c0~6@)) (Mul (Mul (Mul d0~8@ b0~4@) (Sub a0~2@ a0~2@)) (Mul (Sub b0~4@ d0~8@) (Add a0~2@ b0~4@))))))) (and (=> (= tmp%1@ (Mul d0~8@ b0~4@)) (=> (= tmp%2@ (Mul c0~6@ b0~4@)) (=> (ens%main!nl_basics.lemma_mul_is_commutative. tmp%1@ tmp%2@) (=> %%location_label%%0 (= temp_0_0~301@ temp_0_1~522@))))) (=> (= temp_0_0~301@ temp_0_1~522@) (=> (= temp_1_0~819@ (Mul (Mul (Mul (Mul (Mul (Mul a1~10@ a1~10@) a1~10@) (Add (Mul d1~16@ c1~14@) (Mul d1~16@ c1~14@))) (Mul (Mul (Add a1~10@ d1~16@) (Add d1~16@ c1~14@)) (Sub a1~10@ (Mul a1~10@ c1~14@)))) (Mul (Add (Add c1~14@ (Mul c1~14@ 41)) (Sub (Mul d1~16@ d1~16@) (Mul a1~10@ a1~10@))) (Mul (Mul (Sub c1~14@ d1~16@) (Mul d1~16@ c1~14@)) (Sub (Mul d1~16@ c1~14@) (Mul c1~14@ a1~10@))))) (Mul (Mul (Mul (Mul (Sub c1~14@ a1~10@) (Mul b1~12@ d1~16@)) (Mul (Mul b1~12@ c1~14@) (Mul b1~12@ d1~16@))) (Mul (Mul (Mul d1~16@ b1~12@) (Add d1~16@ d1~16@)) (Add (Mul b1~12@ a1~10@) (Sub c1~14@ a1~10@)))) (Mul (Add (Mul (Sub b1~12@ 65) (Mul c1~14@ c1~14@)) (Mul (Add a1~10@ d1~16@) a1~10@)) (Mul (Mul (Mul a1~10@ c1~14@) (Mul b1~12@ a1~10@)) (Mul b1~12@ (Mul d1~16@ d1~16@))))))) (=> (= temp_1_1~1080@ (Mul (Mul (Mul (Mul (Mul (Mul a1~10@ a1~10@) a1~10@) (Add (Mul d1~16@ c1~14@) (Mul d1~16@ c1~14@))) (Mul (Mul (Add a1~10@ d1~16@) (Add d1~16@ c1~14@)) (Sub a1~10@ (Mul a1~10@ c1~14@)))) (Mul (Mul (Add (Add c1~14@ (Mul c1~14@ 41)) (Sub (Mul d1~16@ d1~16@) (Mul a1~10@ a1~10@))) (Mul (Sub c1~14@ d1~16@) (Mul d1~16@ c1~14@))) (Sub (Mul d1~16@ c1~14@) (Mul c1~14@ a1~10@)))) (Mul (Mul (Mul (Mul (Sub c1~14@ a1~10@) (Mul b1~12@ d1~16@)) (Mul (Mul b1~12@ c1~14@) (Mul b1~12@ d1~16@))) (Mul (Mul (Mul d1~16@ b1~12@) (Add d1~16@ d1~16@)) (Add (Mul b1~12@ a1~10@) (Sub c1~14@ a1~10@)))) (Mul (Add (Mul (Sub b1~12@ 65) (Mul c1~14@ c1~14@)) (Mul (Add a1~10@ d1~16@) a1~10@)) (Mul (Mul (Mul a1~10@ c1~14@) (Mul b1~12@ a1~10@)) (Mul b1~12@ (Mul d1~16@ d1~16@))))))) (and (=> (= tmp%3@ (Add (Add c1~14@ (Mul c1~14@ 41)) (Sub (Mul d1~16@ d1~16@) (Mul a1~10@ a1~10@)))) (=> (= tmp%4@ (Mul (Sub c1~14@ d1~16@) (Mul d1~16@ c1~14@))) (=> (= tmp%5@ (Sub (Mul d1~16@ c1~14@) (Mul c1~14@ a1~10@))) (=> (ens%main!nl_basics.lemma_mul_is_associative. tmp%3@ tmp%4@ tmp%5@) (=> %%location_label%%1 (= temp_1_0~819@ temp_1_1~1080@)))))) (=> (= temp_1_0~819@ temp_1_1~1080@) (=> (= temp_2_0~1419@ (Mul (Mul (Mul (Mul (Sub (Mul b2~20@ d2~24@) (Mul b2~20@ a2~18@)) (Mul (Add d2~24@ b2~20@) (Mul b2~20@ a2~18@))) (Mul (Add (Mul a2~18@ c2~22@) (Mul d2~24@ c2~22@)) (Sub (Sub c2~22@ a2~18@) a2~18@))) (Add (Mul (Mul (Mul c2~22@ a2~18@) (Mul a2~18@ b2~20@)) (Mul (Mul b2~20@ a2~18@) (Mul d2~24@ d2~24@))) (Mul (Mul (Mul c2~22@ a2~18@) 78) (Mul (Mul c2~22@ b2~20@) (Mul a2~18@ c2~22@))))) (Mul (Mul (Mul (Mul (Mul d2~24@ d2~24@) (Mul d2~24@ a2~18@)) (Mul (Add b2~20@ a2~18@) (Mul 92 d2~24@))) (Mul (Mul (Mul c2~22@ b2~20@) d2~24@) (Mul (Add c2~22@ a2~18@) (Add c2~22@ b2~20@)))) (Mul (Mul d2~24@ (Mul (Mul b2~20@ b2~20@) c2~22@)) (Mul (Sub (Mul d2~24@ b2~20@) b2~20@) (Mul (Mul b2~20@ d2~24@) (Mul c2~22@ a2~18@))))))) (=> (= temp_2_1~1668@ (Mul (Mul (Add (Mul (Mul (Mul c2~22@ a2~18@) (Mul a2~18@ b2~20@)) (Mul (Mul b2~20@ a2~18@) (Mul d2~24@ d2~24@))) (Mul (Mul (Mul c2~22@ a2~18@) 78) (Mul (Mul c2~22@ b2~20@) (Mul a2~18@ c2~22@)))) (Mul (Mul (Sub (Mul b2~20@ d2~24@) (Mul b2~20@ a2~18@)) (Mul (Add d2~24@ b2~20@) (Mul b2~20@ a2~18@))) (Mul (Add (Mul a2~18@ c2~22@) (Mul d2~24@ c2~22@)) (Sub (Sub c2~22@ a2~18@) a2~18@)))) (Mul (Mul (Mul (Mul (Mul d2~24@ d2~24@) (Mul d2~24@ a2~18@)) (Mul (Add b2~20@ a2~18@) (Mul 92 d2~24@))) (Mul (Mul (Mul c2~22@ b2~20@) d2~24@) (Mul (Add c2~22@ a2~18@) (Add c2~22@ b2~20@)))) (Mul (Mul d2~24@ (Mul (Mul b2~20@ b2~20@) c2~22@)) (Mul (Sub (Mul d2~24@ b2~20@) b2~20@) (Mul (Mul b2~20@ d2~24@) (Mul c2~22@ a2~18@))))))) (and (=> (= tmp%6@ (Mul (Mul (Sub (Mul b2~20@ d2~24@) (Mul b2~20@ a2~18@)) (Mul (Add d2~24@ b2~20@) (Mul b2~20@ a2~18@))) (Mul (Add (Mul a2~18@ c2~22@) (Mul d2~24@ c2~22@)) (Sub (Sub c2~22@ a2~18@) a2~18@)))) (=> (= tmp%7@ (Add (Mul (Mul (Mul c2~22@ a2~18@) (Mul a2~18@ b2~20@)) (Mul (Mul b2~20@ a2~18@) (Mul d2~24@ d2~24@))) (Mul (Mul (Mul c2~22@ a2~18@) 78) (Mul (Mul c2~22@ b2~20@) (Mul a2~18@ c2~22@))))) (=> (ens%main!nl_basics.lemma_mul_is_commutative. tmp%6@ tmp%7@) (=> %%location_label%%2 (= temp_2_0~1419@ temp_2_1~1668@))))) (=> (= temp_2_0~1419@ temp_2_1~1668@) (=> (= temp_3_0~2029@ (Sub (Mul (Mul (Mul (Mul (Mul a3~26@ b3~28@) (Mul a3~26@ b3~28@)) (Mul (Mul c3~30@ b3~28@) (Add c3~30@ c3~30@))) (Mul (Mul (Mul b3~28@ d3~32@) (Mul a3~26@ 14)) (Mul (Mul a3~26@ a3~26@) (Sub a3~26@ d3~32@)))) b3~28@) (Mul (Add (Mul (Sub (Mul c3~30@ d3~32@) (Mul a3~26@ b3~28@)) (Mul (Mul b3~28@ b3~28@) (Mul b3~28@ a3~26@))) (Mul (Mul (Mul a3~26@ a3~26@) c3~30@) (Mul (Sub c3~30@ c3~30@) (Mul c3~30@ c3~30@)))) (Mul (Mul (Mul 17 (Mul a3~26@ b3~28@)) (Mul (Mul a3~26@ a3~26@) (Sub b3~28@ b3~28@))) (Mul (Mul (Sub d3~32@ a3~26@) (Mul c3~30@ d3~32@)) (Mul (Mul c3~30@ c3~30@) c3~30@)))))) (=> (= temp_3_1~2238@ (Sub (Mul (Mul (Mul (Mul (Mul a3~26@ b3~28@) (Mul a3~26@ b3~28@)) (Mul (Mul c3~30@ b3~28@) (Add c3~30@ c3~30@))) (Mul (Mul (Mul b3~28@ d3~32@) (Mul a3~26@ 14)) (Mul (Mul a3~26@ a3~26@) (Sub a3~26@ d3~32@)))) b3~28@) (Mul (Add (Mul (Sub (Mul c3~30@ d3~32@) (Mul a3~26@ b3~28@)) (Mul (Mul b3~28@ b3~28@) (Mul b3~28@ a3~26@))) (Mul (Mul (Mul a3~26@ a3~26@) c3~30@) (Mul (Sub c3~30@ c3~30@) (Mul c3~30@ c3~30@)))) (Mul (Mul (Mul 17 (Mul a3~26@ b3~28@)) (Mul (Mul a3~26@ a3~26@) (Sub b3~28@ b3~28@))) (Mul (Mul (Sub d3~32@ a3~26@) (Mul c3~30@ d3~32@)) (Mul c3~30@ (Mul c3~30@ c3~30@))))))) (and (=> (= tmp%8@ (Mul c3~30@ c3~30@)) (=> (ens%main!nl_basics.lemma_mul_is_commutative. tmp%8@ c3~30@) (=> %%location_label%%3 (= temp_3_0~2029@ temp_3_1~2238@)))) (=> (= temp_3_0~2029@ temp_3_1~2238@) (=> (= temp_4_0~2523@ (Mul (Add (Add (Sub (Mul (Mul c4~38@ a4~34@) (Mul 48 a4~34@)) (Mul (Mul d4~40@ a4~34@) b4~36@)) (Mul (Mul (Mul d4~40@ b4~36@) (Mul a4~34@ d4~40@)) (Sub (Mul b4~36@ d4~40@) (Mul c4~38@ 9)))) (Mul (Sub (Mul (Mul b4~36@ d4~40@) (Mul a4~34@ d4~40@)) (Mul (Mul d4~40@ a4~34@) (Mul b4~36@ b4~36@))) a4~34@)) (Mul (Mul (Mul (Mul (Mul d4~40@ b4~36@) (Mul a4~34@ b4~36@)) (Mul (Mul c4~38@ d4~40@) (Mul b4~36@ c4~38@))) (Mul (Mul (Mul a4~34@ a4~34@) (Mul c4~38@ c4~38@)) (Mul (Mul a4~34@ a4~34@) (Mul d4~40@ a4~34@)))) (Mul (Mul (Mul d4~40@ b4~36@) (Mul (Add b4~36@ b4~36@) (Sub c4~38@ b4~36@))) (Mul (Mul (Add d4~40@ b4~36@) (Add d4~40@ d4~40@)) (Mul (Mul c4~38@ c4~38@) (Mul 89 b4~36@))))))) (=> (= temp_4_1~2776@ (Mul (Add (Add (Sub (Mul (Mul c4~38@ a4~34@) (Mul 48 a4~34@)) (Mul (Mul d4~40@ a4~34@) b4~36@)) (Mul (Mul (Mul d4~40@ b4~36@) (Mul a4~34@ d4~40@)) (Sub (Mul b4~36@ d4~40@) (Mul c4~38@ 9)))) (Mul (Sub (Mul (Mul b4~36@ d4~40@) (Mul a4~34@ d4~40@)) (Mul (Mul d4~40@ a4~34@) (Mul b4~36@ b4~36@))) a4~34@)) (Mul (Mul (Mul (Mul (Mul d4~40@ b4~36@) (Mul a4~34@ b4~36@)) (Mul (Mul c4~38@ d4~40@) (Mul b4~36@ c4~38@))) (Mul (Mul (Mul a4~34@ a4~34@) (Mul c4~38@ c4~38@)) (Mul (Mul a4~34@ a4~34@) (Mul a4~34@ d4~40@)))) (Mul (Mul (Mul d4~40@ b4~36@) (Mul (Add b4~36@ b4~36@) (Sub c4~38@ b4~36@))) (Mul (Mul (Add d4~40@ b4~36@) (Add d4~40@ d4~40@)) (Mul (Mul c4~38@ c4~38@) (Mul 89 b4~36@))))))) (and (=> (ens%main!nl_basics.lemma_mul_is_commutative. d4~40@ a4~34@) (=> %%location_label%%4 (= temp_4_0~2523@ temp_4_1~2776@))) (=> (= temp_4_0~2523@ temp_4_1~2776@) (=> (= temp_5_0~2969@ (Mul (Mul a5~42@ (Mul (Mul (Mul (Mul b5~44@ c5~46@) (Mul b5~44@ a5~42@)) (Mul (Sub c5~46@ c5~46@) (Mul c5~46@ d5~48@))) (Mul (Add (Mul d5~48@ d5~48@) (Sub d5~48@ a5~42@)) (Mul (Sub d5~48@ a5~42@) (Add d5~48@ d5~48@))))) (Mul (Sub (Mul (Mul (Mul c5~46@ a5~42@) (Mul d5~48@ d5~48@)) (Mul (Mul b5~44@ d5~48@) (Mul b5~44@ c5~46@))) (Add (Mul (Mul a5~42@ c5~46@) (Mul b5~44@ a5~42@)) (Mul (Mul a5~42@ b5~44@) (Mul a5~42@ b5~44@)))) (Add c5~46@ (Mul (Mul (Mul b5~44@ b5~44@) a5~42@) (Mul (Mul c5~46@ a5~42@) (Mul a5~42@ d5~48@))))))) (=> (= temp_5_1~3134@ (Mul (Mul a5~42@ (Mul (Mul (Mul (Mul c5~46@ b5~44@) (Mul b5~44@ a5~42@)) (Mul (Sub c5~46@ c5~46@) (Mul c5~46@ d5~48@))) (Mul (Add (Mul d5~48@ d5~48@) (Sub d5~48@ a5~42@)) (Mul (Sub d5~48@ a5~42@) (Add d5~48@ d5~48@))))) (Mul (Sub (Mul (Mul (Mul c5~46@ a5~42@) (Mul d5~48@ d5~48@)) (Mul (Mul b5~44@ d5~48@) (Mul b5~44@ c5~46@))) (Add (Mul (Mul a5~42@ c5~46@) (Mul b5~44@ a5~42@)) (Mul (Mul a5~42@ b5~44@) (Mul a5~42@ b5~44@)))) (Add c5~46@ (Mul (Mul (Mul b5~44@ b5~44@) a5~42@) (Mul (Mul c5~46@ a5~42@) (Mul a5~42@ d5~48@))))))) (and (=> (ens%main!nl_basics.lemma_mul_is_commutative. b5~44@ c5~46@) (=> %%location_label%%5 (= temp_5_0~2969@ temp_5_1~3134@))) (=> (= temp_5_0~2969@ temp_5_1~3134@) (=> (= temp_6_0~3351@ (Mul (Add (Add (Mul (Mul (Mul b6~52@ d6~56@) b6~52@) (Mul (Mul b6~52@ c6~54@) (Mul a6~50@ b6~52@))) (Mul (Add (Mul b6~52@ c6~54@) (Mul a6~50@ c6~54@)) b6~52@)) (Mul b6~52@ (Mul (Mul (Mul a6~50@ b6~52@) (Mul b6~52@ b6~52@)) (Mul (Mul b6~52@ c6~54@) (Mul c6~54@ d6~56@))))) (Mul (Mul (Add (Add (Add c6~54@ b6~52@) (Mul d6~56@ b6~52@)) (Sub (Mul b6~52@ d6~56@) d6~56@)) (Mul (Mul (Mul a6~50@ c6~54@) c6~54@) (Add (Add d6~56@ a6~50@) (Mul a6~50@ b6~52@)))) (Mul (Add (Mul (Mul d6~56@ a6~50@) (Mul a6~50@ b6~52@)) c6~54@) (Mul (Mul (Mul a6~50@ b6~52@) d6~56@) (Mul (Mul d6~56@ d6~56@) (Mul a6~50@ a6~50@))))))) (=> (= temp_6_1~3644@ (Add (Mul (Add (Mul (Mul (Mul b6~52@ d6~56@) b6~52@) (Mul (Mul b6~52@ c6~54@) (Mul a6~50@ b6~52@))) (Mul (Add (Mul b6~52@ c6~54@) (Mul a6~50@ c6~54@)) b6~52@)) (Mul (Mul (Add (Add (Add c6~54@ b6~52@) (Mul d6~56@ b6~52@)) (Sub (Mul b6~52@ d6~56@) d6~56@)) (Mul (Mul (Mul a6~50@ c6~54@) c6~54@) (Add (Add d6~56@ a6~50@) (Mul a6~50@ b6~52@)))) (Mul (Add (Mul (Mul d6~56@ a6~50@) (Mul a6~50@ b6~52@)) c6~54@) (Mul (Mul (Mul a6~50@ b6~52@) d6~56@) (Mul (Mul d6~56@ d6~56@) (Mul a6~50@ a6~50@)))))) (Mul (Mul b6~52@ (Mul (Mul (Mul a6~50@ b6~52@) (Mul b6~52@ b6~52@)) (Mul (Mul b6~52@ c6~54@) (Mul c6~54@ d6~56@)))) (Mul (Mul (Add (Add (Add c6~54@ b6~52@) (Mul d6~56@ b6~52@)) (Sub (Mul b6~52@ d6~56@) d6~56@)) (Mul (Mul (Mul a6~50@ c6~54@) c6~54@) (Add (Add d6~56@ a6~50@) (Mul a6~50@ b6~52@)))) (Mul (Add (Mul (Mul d6~56@ a6~50@) (Mul a6~50@ b6~52@)) c6~54@) (Mul (Mul (Mul a6~50@ b6~52@) d6~56@) (Mul (Mul d6~56@ d6~56@) (Mul a6~50@ a6~50@)))))))) (=> (= tmp%9@ (Add (Mul (Mul (Mul b6~52@ d6~56@) b6~52@) (Mul (Mul b6~52@ c6~54@) (Mul a6~50@ b6~52@))) (Mul (Add (Mul b6~52@ c6~54@) (Mul a6~50@ c6~54@)) b6~52@))) (=> (= tmp%10@ (Mul b6~52@ (Mul (Mul (Mul a6~50@ b6~52@) (Mul b6~52@ b6~52@)) (Mul (Mul b6~52@ c6~54@) (Mul c6~54@ d6~56@))))) (=> (= tmp%11@ (Mul (Mul (Add (Add (Add c6~54@ b6~52@) (Mul d6~56@ b6~52@)) (Sub (Mul b6~52@ d6~56@) d6~56@)) (Mul (Mul (Mul a6~50@ c6~54@) c6~54@) (Add (Add d6~56@ a6~50@) (Mul a6~50@ b6~52@)))) (Mul (Add (Mul (Mul d6~56@ a6~50@) (Mul a6~50@ b6~52@)) c6~54@) (Mul (Mul (Mul a6~50@ b6~52@) d6~56@) (Mul (Mul d6~56@ d6~56@) (Mul a6~50@ a6~50@)))))) (=> (ens%main!nl_basics.lemma_mul_is_distributive. tmp%9@ tmp%10@ tmp%11@) (=> %%location_label%%6 (= temp_6_0~3351@ temp_6_1~3644@)))))))))))))))))))))))))))))))))))
(assert %%query%%)
(check-sat)
